n_res = 4;
rc = [ 27, 27, 29, 21 ];
n_tasks = 30;
d = [ 5, 3, 1, 1, 5, 2, 2, 8, 9, 1, 4, 2, 4, 1, 1, 3, 7, 6, 1, 8, 3, 3, 10, 8, 7, 4, 5, 2, 7, 5 ];
rr = [| 7, 4, 0, 6, 0, 3, 0, 3, 4, 0, 6, 10, 0, 5, 0, 0, 9, 8, 7, 0, 0, 0, 0, 7, 7, 0, 0, 8, 0, 2
      | 0, 4, 2, 9, 0, 8, 8, 0, 3, 6, 0, 0, 1, 0, 0, 9, 4, 9, 5, 5, 5, 2, 0, 0, 0, 7, 2, 0, 6, 9
      | 0, 0, 0, 0, 8, 0, 4, 0, 0, 9, 10, 0, 2, 0, 1, 0, 9, 0, 0, 0, 0, 0, 8, 5, 10, 0, 5, 0, 9, 8
      | 3, 4, 1, 8, 0, 0, 0, 10, 9, 0, 9, 0, 0, 0, 0, 0, 0, 2, 0, 1, 8, 0, 0, 3, 0, 10, 0, 0, 0, 3 |];
suc = [ { 2 }, 
        { 1 }, 
        { 4 }, 
        { 3 }, 
        { 6 }, 
        { 5 }, 
        { 8 }, 
        { 7 }, 
        { 10 }, 
        { 9 }, 
        { 12 }, 
        { 11 }, 
        { 14 }, 
        { 13 }, 
        { 16 }, 
        { 15 }, 
        { 18 }, 
        { 17 }, 
        { 20 }, 
        { 19 }, 
        { 22 }, 
        { 21 }, 
        { 24 }, 
        { 23 }, 
        { 26 }, 
        { 25 }, 
        { 28 }, 
        { 27 }, 
        { 30 }, 
        { 29 }]; 
